p cnf 188 467
a 11 14 42 45 21 23 2 4 10 39 56 59 74 76 83 85 1 9 33 20 29 38 52 64 69 73 82 0
d 123 1 9 0
d 34 20 29 0
d 129 33 38 0
d 167 83 69 0
d 144 52 64 0
d 179 73 82 0
d 3 2 0
d 5 4 0
d 6 2 4 0
d 7 1 2 4 0
d 8 1 2 4 0
d 12 11 0
d 13 10 11 0
d 15 14 0
d 16 10 11 14 0
d 17 9 10 11 14 0
d 18 9 10 11 14 0
d 19 1 2 4 9 10 11 14 0
d 22 21 0
d 24 23 0
d 25 21 23 0
d 26 20 21 23 0
d 27 20 21 23 0
d 28 1 2 4 9 10 11 14 20 21 23 0
d 30 29 2 4 0
d 31 29 2 4 0
d 32 1 2 4 9 10 11 14 20 21 23 29 0
d 35 33 20 29 0
d 36 33 20 29 0
d 37 1 2 4 9 10 11 14 20 21 23 29 33 0
d 40 10 39 0
d 41 11 14 0
d 43 42 0
d 44 11 14 42 0
d 46 45 0
d 47 11 14 42 45 0
d 48 10 39 11 14 42 45 0
d 49 38 10 39 11 14 42 45 0
d 50 38 10 39 11 14 42 45 0
d 51 1 2 4 9 10 11 14 20 21 23 29 33 38 39 42 45 0
d 53 10 0
d 54 39 0
d 55 10 39 0
d 57 56 0
d 58 10 39 56 0
d 60 10 39 56 59 0
d 61 52 10 39 56 59 0
d 62 52 10 39 56 59 0
d 63 1 2 4 9 10 11 14 20 21 23 29 33 38 39 42 45 52 56 59 0
d 65 11 14 42 45 20 29 0
d 66 64 11 14 42 45 20 29 0
d 67 64 11 14 42 45 20 29 0
d 68 1 2 4 9 10 11 14 20 21 23 29 33 38 39 42 45 52 56 59 64 0
d 70 69 11 14 0
d 71 69 11 14 0
d 72 1 2 4 9 10 11 14 20 21 23 29 33 38 39 42 45 52 56 59 64 69 0
d 75 74 0
d 77 76 0
d 78 74 76 0
d 79 73 74 76 0
d 80 73 74 76 0
d 81 1 2 4 9 10 11 14 20 21 23 29 33 38 39 42 45 52 56 59 64 69 73 74 76 0
d 84 83 0
d 86 83 85 0
d 87 82 83 85 0
d 88 82 83 85 0
d 89 1 2 4 9 10 11 14 20 21 23 29 33 38 39 42 45 52 56 59 64 69 73 74 76 82 83 85 0
d 90 11 0
d 91 11 14 0
d 92 11 14 0
d 93 11 14 0
d 94 42 11 0
d 95 42 11 14 0
d 96 42 11 14 0
d 97 11 14 42 0
d 98 11 14 42 45 0
d 99 11 14 42 45 0
d 100 11 14 42 45 0
d 101 42 45 0
d 102 21 11 0
d 103 21 11 14 0
d 104 42 45 21 11 14 0
d 105 42 45 21 11 14 0
d 106 11 14 42 45 21 0
d 107 21 23 0
d 108 21 23 11 14 42 45 0
d 109 21 23 11 14 42 45 0
d 110 11 14 42 45 21 23 0
d 111 2 11 0
d 112 2 11 14 0
d 113 42 45 21 0
d 114 42 45 21 23 0
d 115 2 11 14 42 45 21 23 0
d 116 2 11 14 42 45 21 23 0
d 117 11 14 42 45 21 23 2 0
d 118 21 23 2 0
d 119 21 23 2 4 0
d 120 11 14 42 45 21 23 2 4 0
d 121 11 14 42 45 21 23 2 4 0
d 122 11 14 42 45 21 23 2 4 0
d 124 42 45 21 23 1 9 0
d 125 2 4 10 11 14 0
d 126 42 45 21 23 2 4 10 11 14 0
d 127 42 45 21 23 1 9 2 4 10 11 14 0
d 128 11 14 42 45 21 23 2 4 1 9 10 0
d 130 21 23 2 4 0
d 131 10 39 0
d 132 10 39 11 14 42 45 0
d 133 21 23 2 4 10 39 11 14 42 45 0
d 134 33 38 21 23 2 4 10 39 11 14 42 45 0
d 135 11 14 42 45 21 23 2 4 1 9 10 33 38 39 0
d 136 2 4 10 0
d 137 2 4 10 39 0
d 138 56 11 0
d 139 56 11 14 0
d 140 56 11 14 42 45 21 23 0
d 141 2 4 10 39 56 11 14 42 45 21 23 0
d 142 2 4 10 39 56 11 14 42 45 21 23 0
d 143 11 14 42 45 21 23 2 4 1 9 10 33 38 39 56 0
d 145 11 14 42 45 21 23 2 4 0
d 146 10 39 56 59 11 14 42 45 21 23 2 4 0
d 147 52 64 10 39 56 59 11 14 42 45 21 23 2 4 0
d 148 11 14 42 45 21 23 2 4 1 9 10 33 38 39 56 52 64 59 0
d 149 59 0
d 150 56 59 0
d 151 74 11 0
d 152 74 11 14 0
d 153 56 59 74 11 14 0
d 154 42 45 21 23 2 4 10 39 0
d 155 56 59 74 11 14 42 45 21 23 2 4 10 39 0
d 156 56 59 74 11 14 42 45 21 23 2 4 10 39 0
d 157 11 14 42 45 21 23 2 4 1 9 10 33 38 39 56 52 64 59 74 0
d 158 74 76 0
d 159 74 76 11 14 42 45 0
d 160 10 39 56 59 0
d 161 20 29 10 39 56 59 0
d 162 74 76 11 14 42 45 20 29 10 39 56 59 0
d 163 21 23 2 4 10 39 56 59 0
d 164 74 76 11 14 42 45 21 23 2 4 10 39 56 59 0
d 165 74 76 11 14 42 45 20 29 10 39 56 59 21 23 2 4 0
d 166 11 14 42 45 21 23 2 4 1 9 10 33 38 39 56 52 64 59 74 76 20 29 0
d 168 83 69 42 45 21 23 0
d 169 56 59 74 0
d 170 56 59 74 76 0
d 171 2 4 10 39 56 59 74 76 0
d 172 83 69 42 45 21 23 2 4 10 39 56 59 74 76 0
d 173 83 11 0
d 174 83 11 14 0
d 175 83 11 14 42 45 21 23 0
d 176 83 11 14 42 45 21 23 2 4 10 39 56 59 74 76 0
d 177 83 69 42 45 21 23 2 4 10 39 56 59 74 76 11 14 0
d 178 11 14 42 45 21 23 2 4 1 9 10 33 38 39 56 52 64 59 74 76 20 29 83 69 0
d 180 10 39 56 59 73 82 0
d 181 11 14 42 45 20 29 10 39 56 59 73 82 0
d 182 74 76 83 0
d 183 74 76 83 85 0
d 184 10 39 56 59 74 76 83 85 0
d 185 11 14 42 45 21 23 2 4 10 39 56 59 74 76 83 85 0
d 186 11 14 42 45 20 29 10 39 56 59 73 82 21 23 2 4 74 76 83 85 0
d 187 11 14 42 45 21 23 2 4 1 9 10 33 38 39 56 52 64 59 74 76 20 29 83 69 73 82 85 0
d 188 1 2 4 9 10 11 14 20 21 23 29 33 38 39 42 45 52 56 59 64 69 73 74 76 82 83 85 0
3 2 0
-3 -2 0
5 4 0
-5 -4 0
-6 3 0
-6 5 0
6 -3 -5 0
7 -1 -6 0
7 1 6 0
-7 -1 6 0
-7 1 -6 0
8 7 0
-8 -7 0
12 11 0
-12 -11 0
-13 10 0
-13 12 0
13 -10 -12 0
15 14 0
-15 -14 0
-16 13 0
-16 15 0
16 -13 -15 0
17 -9 -16 0
17 9 16 0
-17 -9 16 0
-17 9 -16 0
18 17 0
-18 -17 0
19 -8 0
19 -18 0
-19 8 18 0
22 21 0
-22 -21 0
24 23 0
-24 -23 0
-25 22 0
-25 24 0
25 -22 -24 0
26 -20 -25 0
26 20 25 0
-26 -20 25 0
-26 20 -25 0
27 26 0
-27 -26 0
28 -19 0
28 -27 0
-28 19 27 0
30 -29 -6 0
30 29 6 0
-30 -29 6 0
-30 29 -6 0
31 30 0
-31 -30 0
32 -28 0
32 -31 0
-32 28 31 0
35 -33 -34 0
35 33 34 0
-35 -33 34 0
-35 33 -34 0
36 35 0
-36 -35 0
37 -32 0
37 -36 0
-37 32 36 0
-40 10 0
-40 39 0
40 -10 -39 0
-41 12 0
-41 15 0
41 -12 -15 0
43 42 0
-43 -42 0
-44 41 0
-44 43 0
44 -41 -43 0
46 45 0
-46 -45 0
-47 44 0
-47 46 0
47 -44 -46 0
-48 40 0
-48 47 0
48 -40 -47 0
49 -38 -48 0
49 38 48 0
-49 -38 48 0
-49 38 -48 0
50 49 0
-50 -49 0
51 -37 0
51 -50 0
-51 37 50 0
53 10 0
-53 -10 0
54 39 0
-54 -39 0
-55 53 0
-55 54 0
55 -53 -54 0
57 56 0
-57 -56 0
-58 55 0
-58 57 0
58 -55 -57 0
-60 58 0
-60 59 0
60 -58 -59 0
61 -52 -60 0
61 52 60 0
-61 -52 60 0
-61 52 -60 0
62 61 0
-62 -61 0
63 -51 0
63 -62 0
-63 51 62 0
-65 47 0
-65 34 0
65 -47 -34 0
66 -64 -65 0
66 64 65 0
-66 -64 65 0
-66 64 -65 0
67 66 0
-67 -66 0
68 -63 0
68 -67 0
-68 63 67 0
70 -69 -41 0
70 69 41 0
-70 -69 41 0
-70 69 -41 0
71 70 0
-71 -70 0
72 -68 0
72 -71 0
-72 68 71 0
75 74 0
-75 -74 0
77 76 0
-77 -76 0
-78 75 0
-78 77 0
78 -75 -77 0
79 -73 -78 0
79 73 78 0
-79 -73 78 0
-79 73 -78 0
80 79 0
-80 -79 0
81 -72 0
81 -80 0
-81 72 80 0
84 83 0
-84 -83 0
-86 84 0
-86 85 0
86 -84 -85 0
87 -82 -86 0
87 82 86 0
-87 -82 86 0
-87 82 -86 0
88 87 0
-88 -87 0
89 -81 0
89 -88 0
-89 81 88 0
90 -11 -11 0
90 11 11 0
-90 -11 11 0
-90 11 -11 0
-91 12 0
-91 14 0
91 -12 -14 0
92 -91 -91 0
92 91 91 0
-92 -91 91 0
-92 91 -91 0
-93 90 0
-93 92 0
93 -90 -92 0
-94 42 0
-94 12 0
94 -42 -12 0
-95 94 0
-95 15 0
95 -94 -15 0
96 -95 -95 0
96 95 95 0
-96 -95 95 0
-96 95 -95 0
-97 93 0
-97 96 0
97 -93 -96 0
-98 44 0
-98 45 0
98 -44 -45 0
99 -98 -98 0
99 98 98 0
-99 -98 98 0
-99 98 -98 0
-100 97 0
-100 99 0
100 -97 -99 0
-101 43 0
-101 46 0
101 -43 -46 0
-102 21 0
-102 12 0
102 -21 -12 0
-103 102 0
-103 15 0
103 -102 -15 0
-104 101 0
-104 103 0
104 -101 -103 0
105 -104 -104 0
105 104 104 0
-105 -104 104 0
-105 104 -104 0
-106 100 0
-106 105 0
106 -100 -105 0
-107 22 0
-107 23 0
107 -22 -23 0
-108 107 0
-108 47 0
108 -107 -47 0
109 -108 -108 0
109 108 108 0
-109 -108 108 0
-109 108 -108 0
-110 106 0
-110 109 0
110 -106 -109 0
-111 2 0
-111 12 0
111 -2 -12 0
-112 111 0
-112 15 0
112 -111 -15 0
-113 101 0
-113 22 0
113 -101 -22 0
-114 113 0
-114 24 0
114 -113 -24 0
-115 112 0
-115 114 0
115 -112 -114 0
116 -115 -115 0
116 115 115 0
-116 -115 115 0
-116 115 -115 0
-117 110 0
-117 116 0
117 -110 -116 0
-118 25 0
-118 3 0
118 -25 -3 0
-119 118 0
-119 4 0
119 -118 -4 0
-120 47 0
-120 119 0
120 -47 -119 0
121 -120 -120 0
121 120 120 0
-121 -120 120 0
-121 120 -120 0
-122 117 0
-122 121 0
122 -117 -121 0
-124 114 0
-124 123 0
124 -114 -123 0
-125 6 0
-125 16 0
125 -6 -16 0
-126 114 0
-126 125 0
126 -114 -125 0
127 -124 -126 0
127 124 126 0
-127 -124 126 0
-127 124 -126 0
-128 122 0
-128 127 0
128 -122 -127 0
-130 118 0
-130 5 0
130 -118 -5 0
-131 53 0
-131 39 0
131 -53 -39 0
-132 131 0
-132 47 0
132 -131 -47 0
-133 130 0
-133 132 0
133 -130 -132 0
134 -129 -133 0
134 129 133 0
-134 -129 133 0
-134 129 -133 0
-135 128 0
-135 134 0
135 -128 -134 0
-136 6 0
-136 53 0
136 -6 -53 0
-137 136 0
-137 54 0
137 -136 -54 0
-138 56 0
-138 12 0
138 -56 -12 0
-139 138 0
-139 15 0
139 -138 -15 0
-140 139 0
-140 114 0
140 -139 -114 0
-141 137 0
-141 140 0
141 -137 -140 0
142 -141 -141 0
142 141 141 0
-142 -141 141 0
-142 141 -141 0
-143 135 0
-143 142 0
143 -135 -142 0
-145 47 0
-145 130 0
145 -47 -130 0
-146 60 0
-146 145 0
146 -60 -145 0
147 -144 -146 0
147 144 146 0
-147 -144 146 0
-147 144 -146 0
-148 143 0
-148 147 0
148 -143 -147 0
149 59 0
-149 -59 0
-150 57 0
-150 149 0
150 -57 -149 0
-151 74 0
-151 12 0
151 -74 -12 0
-152 151 0
-152 15 0
152 -151 -15 0
-153 150 0
-153 152 0
153 -150 -152 0
-154 114 0
-154 137 0
154 -114 -137 0
-155 153 0
-155 154 0
155 -153 -154 0
156 -155 -155 0
156 155 155 0
-156 -155 155 0
-156 155 -155 0
-157 148 0
-157 156 0
157 -148 -156 0
-158 75 0
-158 76 0
158 -75 -76 0
-159 158 0
-159 47 0
159 -158 -47 0
-160 58 0
-160 149 0
160 -58 -149 0
-161 34 0
-161 160 0
161 -34 -160 0
-162 159 0
-162 161 0
162 -159 -161 0
-163 130 0
-163 160 0
163 -130 -160 0
-164 159 0
-164 163 0
164 -159 -163 0
165 -162 -164 0
165 162 164 0
-165 -162 164 0
-165 162 -164 0
-166 157 0
-166 165 0
166 -157 -165 0
-168 167 0
-168 114 0
168 -167 -114 0
-169 150 0
-169 75 0
169 -150 -75 0
-170 169 0
-170 77 0
170 -169 -77 0
-171 137 0
-171 170 0
171 -137 -170 0
-172 168 0
-172 171 0
172 -168 -171 0
-173 83 0
-173 12 0
173 -83 -12 0
-174 173 0
-174 15 0
174 -173 -15 0
-175 174 0
-175 114 0
175 -174 -114 0
-176 175 0
-176 171 0
176 -175 -171 0
177 -172 -176 0
177 172 176 0
-177 -172 176 0
-177 172 -176 0
-178 166 0
-178 177 0
178 -166 -177 0
-180 160 0
-180 179 0
180 -160 -179 0
-181 65 0
-181 180 0
181 -65 -180 0
-182 78 0
-182 84 0
182 -78 -84 0
-183 182 0
-183 85 0
183 -182 -85 0
-184 160 0
-184 183 0
184 -160 -183 0
-185 145 0
-185 184 0
185 -145 -184 0
186 -181 -185 0
186 181 185 0
-186 -181 185 0
-186 181 -185 0
-187 178 0
-187 186 0
187 -178 -186 0
188 -89 0
188 -187 0
-188 89 187 0
188 0
